NAME : traveling-santa-2018-prime-paths.28965.tour
COMMENT : Length = 28965
COMMENT : Found by LKH [Keld Helsgaun] Sun Jun 12 20:00:36 2022
TYPE : TOUR
DIMENSION : 100
TOUR_SECTION
1
76
55
13
66
38
74
11
35
29
86
78
12
53
48
51
8
77
37
24
10
25
47
7
52
44
45
79
70
26
4
46
56
59
33
40
20
93
57
89
6
16
39
21
69
22
19
49
72
63
36
58
83
60
34
54
43
61
80
5
9
68
73
85
28
90
42
17
32
31
71
65
18
15
3
64
87
100
50
88
23
84
75
96
95
99
94
41
67
92
2
91
81
62
27
14
82
98
30
97
-1
EOF
